859126 3568.72
20034.3 751847
1375.84 839565
747834 33127.8
191080 632669
745254 36070
163638 651887
566807 250143
515386 313051
596527 229116
846323 16248.8
328173 486771
485257 328521
292091 561458
344523 473833
110270 684505
813954 23810.9
313740 487442
669589 164057
216119 610529
173561 642255
723653 77967.9
766076 23880
595705 241432
450764 385547
517993 274938
692616 139358
243990 594633
464929 352728
343768 475366
445409 405022
97310.8 707509
66711.6 747750
760918 31009.1
12065.4 792233
479101 349554
630744 168671
76967.9 723134
386821 426610
296334 515144
692842 109216
376106 426772
17740 777373
288863 565303
611193 217006
691313 140454
106955 689687
689933 140935
735403 61165.4
420738 416986
245213 592997
744701 53472.3
313069 490221
508976 328511
607097 225895
